12 32 9 10
15 2 13 16 18 16 20 16 9 11 15 10 20 18 6 5 2 11 9 11 2 12 17 20 13 7 13 16 20 9 3 2 
4.35 7.93 6.64 1.9 10.97 3.61 3.91 15.36 8.61 15.93 8.16 6.87 4.16 5.28 8.67 13.26 11.46 8.77 3.79 13.72 10.32 10.88 2.93 7.04 10 5.16 2.71 14.87 0.38 14.07 4.53 13.2 
11.07 0.96 7.49 14.14 12.69 4.6 4.64 4.07 1.72 13.99 1.46 10.5 9.91 3.14 14.04 6.68 14.71 0.14 15.75 6.98 8.73 5.59 10.1 4.3 9.74 12.63 9.51 4.1 8.61 6.64 15.32 7.29 
3.91 4.32 3.9 13.17 5.97 0.51 13.42 5.96 0.71 9.78 5.01 13.95 12.57 1.33 10.6 14.36 3.88 2.97 15.77 11.36 1.71 11.64 3.69 9.58 5.53 6.86 8.5 0.88 4.1 2.32 7.68 8.24 
6.85 15.54 4.28 12.55 14.62 15.55 8.22 8.54 6 15.08 10.03 12.69 6.53 2.95 10.89 0.41 7.26 9.74 3.46 10.65 9.65 2.71 15.26 13.97 6.9 2.64 9.22 0.81 3.17 3.74 1.07 0.12 
2.86 1.03 11.94 3.66 1.39 8.57 0.99 15.25 2.79 6.24 9.9 15.38 11.8 0.37 1.33 12.81 15.86 4.04 14.2 7.35 5 4.26 5.03 15.77 15.51 11.02 12.55 10.26 0.48 1.25 6.77 7.16 
2.74 5.35 9.86 3.87 1.86 9.09 8.8 3.33 6.25 4.16 3.6 0.78 6.22 7.08 2.47 12.22 4.12 14.66 4.73 6.12 6.92 1.01 14.43 12.6 6.82 11.33 13.26 11.16 7.21 11.55 6.82 0.23 
13.81 9.08 10.52 4.17 8.46 11.82 11.65 7.71 1.58 2.07 14.15 13.81 1.75 7.15 6.11 9.94 13.83 15.04 0.84 10.5 7.99 7.36 5.61 13.01 3.47 4.14 15.96 2.2 6.45 4.75 15.89 5.83 
11.59 2.31 8.21 9.89 13.68 2.88 1.19 14.79 8.03 8 8.42 14.28 1.47 3.32 12.84 12.93 3.64 5.99 12.87 14.78 8.13 10.76 9.94 15.46 8.37 5.81 8.05 6.07 10.16 9.6 0.74 9.09 
1.43 4.84 14.33 5.47 13.45 12.94 6.2 8.37 4.71 3.05 9.58 9.77 1.59 2.37 14.97 3.37 9.56 2.79 5.65 4.21 4.24 13.37 12.06 14.72 6.34 2.26 0.95 4.24 0.16 14.67 15.83 14.97 
8 8 8 8 8 8 8 8 8 8 8 8 8 8 8 8 8 8 8 8 8 8 8 8 8 8 8 8 8 8 8 8 
7.35 6.37 3.56 12.34 1.13 8.69 9.02 8.22 5.92 7.21 3.54 2.1 2.1 3.54 0.09 8.13 14.46 9.01 8.86 4.14 14.42 15.1 8.09 1.92 10.88 15.22 1.07 11.45 3.91 5.54 10.11 2.15 
9.39 8.86 8.91 15.47 0.97 1.82 9.1 8.09 9.79 4.71 12.87 14.39 9.75 3.43 5.72 4.97 13.76 0.44 7.73 13.37 11.99 13.29 10.22 4.47 1.83 7.63 9.34 1.93 14.59 0.22 4.92 10.87 
1 1 1 1 1 1 1 1 1 1 1 1 1 1 1 1 1 1 1 1 1 1 1 1 1 1 1 1 1 1 1 1 
1 1 1 1 1 1 1 1 1 1 1 1 1 1 1 1 1 1 1 1 1 1 1 1 1 1 1 1 1 1 1 1 
1 1 1 1 1 1 1 1 1 1 1 1 1 1 1 1 1 1 1 1 1 1 1 1 1 1 1 1 1 1 1 1 
1 1 1 1 1 1 1 1 1 1 1 1 1 1 1 1 1 1 1 1 1 1 1 1 1 1 1 1 1 1 1 1 
1 1 1 1 1 1 1 1 1 1 1 1 1 1 1 1 1 1 1 1 1 1 1 1 1 1 1 1 1 1 1 1 
1 1 1 1 1 1 1 1 1 1 1 1 1 1 1 1 1 1 1 1 1 1 1 1 1 1 1 1 1 1 1 1 
1 1 1 1 1 1 1 1 1 1 1 1 1 1 1 1 1 1 1 1 1 1 1 1 1 1 1 1 1 1 1 1 
1 1 1 1 1 1 1 1 1 1 1 1 1 1 1 1 1 1 1 1 1 1 1 1 1 1 1 1 1 1 1 1 
1 1 1 1 1 1 1 1 1 1 1 1 1 1 1 1 1 1 1 1 1 1 1 1 1 1 1 1 1 1 1 1 
1 1 1 1 1 1 1 1 1 1 1 1 1 1 1 1 1 1 1 1 1 1 1 1 1 1 1 1 1 1 1 1 
1 1 1 1 1 1 1 1 1 1 1 1 1 1 1 1 1 1 1 1 1 1 1 1 1 1 1 1 1 1 1 1 
1 1 1 1 1 1 1 1 1 1 1 1 1 1 1 1 1 1 1 1 1 1 1 1 1 1 1 1 1 1 1 1 
0.01 0.01 0.01 0.01 0.01 0.01 0.01 0.01 0.01 0.01 0.01 0.01 0.01 0.01 0.01 0.01 0.01 0.01 0.01 0.01 0.01 0.01 0.01 0.01 0.01 0.01 0.01 0.01 0.01 0.01 0.01 0.01 
0.02 0.02 0.02 0.02 0.02 0.02 0.02 0.02 0.02 0.02 0.02 0.02 0.02 0.02 0.02 0.02 0.02 0.02 0.02 0.02 0.02 0.02 0.02 0.02 0.02 0.02 0.02 0.02 0.02 0.02 0.02 0.02 
0.03 0.03 0.03 0.03 0.03 0.03 0.03 0.03 0.03 0.03 0.03 0.03 0.03 0.03 0.03 0.03 0.03 0.03 0.03 0.03 0.03 0.03 0.03 0.03 0.03 0.03 0.03 0.03 0.03 0.03 0.03 0.03 
0.04 0.04 0.04 0.04 0.04 0.04 0.04 0.04 0.04 0.04 0.04 0.04 0.04 0.04 0.04 0.04 0.04 0.04 0.04 0.04 0.04 0.04 0.04 0.04 0.04 0.04 0.04 0.04 0.04 0.04 0.04 0.04 
0.05 0.05 0.05 0.05 0.05 0.05 0.05 0.05 0.05 0.05 0.05 0.05 0.05 0.05 0.05 0.05 0.05 0.05 0.05 0.05 0.05 0.05 0.05 0.05 0.05 0.05 0.05 0.05 0.05 0.05 0.05 0.05 
0.06 0.06 0.06 0.06 0.06 0.06 0.06 0.06 0.06 0.06 0.06 0.06 0.06 0.06 0.06 0.06 0.06 0.06 0.06 0.06 0.06 0.06 0.06 0.06 0.06 0.06 0.06 0.06 0.06 0.06 0.06 0.06 
0.07 0.07 0.07 0.07 0.07 0.07 0.07 0.07 0.07 0.07 0.07 0.07 0.07 0.07 0.07 0.07 0.07 0.07 0.07 0.07 0.07 0.07 0.07 0.07 0.07 0.07 0.07 0.07 0.07 0.07 0.07 0.07 
0.08 0.08 0.08 0.08 0.08 0.08 0.08 0.08 0.08 0.08 0.08 0.08 0.08 0.08 0.08 0.08 0.08 0.08 0.08 0.08 0.08 0.08 0.08 0.08 0.08 0.08 0.08 0.08 0.08 0.08 0.08 0.08 
0.09 0.09 0.09 0.09 0.09 0.09 0.09 0.09 0.09 0.09 0.09 0.09 0.09 0.09 0.09 0.09 0.09 0.09 0.09 0.09 0.09 0.09 0.09 0.09 0.09 0.09 0.09 0.09 0.09 0.09 0.09 0.09 
0.1 0.1 0.1 0.1 0.1 0.1 0.1 0.1 0.1 0.1 0.1 0.1 0.1 0.1 0.1 0.1 0.1 0.1 0.1 0.1 0.1 0.1 0.1 0.1 0.1 0.1 0.1 0.1 0.1 0.1 0.1 0.1 
0.5 0.5 0.5 0.5 0.5 0.5 0.5 0.5 0.5 0.5 0.5 0.5 0.5 0.5 0.5 0.5 0.5 0.5 0.5 0.5 0.5 0.5 0.5 0.5 0.5 0.5 0.5 0.5 0.5 0.5 0.5 0.5 
1 1 1 1 1 1 1 1 1 1 1 1 1 1 1 1 1 1 1 1 1 1 1 1 1 1 1 1 1 1 1 1 
